letting n_nurses=25
letting n_days=7
letting n_shift_types=4
letting max_covers=6
letting t_covers=35
letting covers=[1,1,0,0,5,6,0,0,1,1,0,0,5,3,0,0,1,0,2,0,0,0,0,0,2,1,6,0]
letting prefes=[3,3,3,1,2,1,1,2,2,1,1,2,2,1,1,2,2,1,1,2,2,1,1,2,3,3,3,1,3,3,3,3,2,2,1,2,2,2,1,2,2,2,1,2,2,2,1,2,2,2,1,2,3,3,3,3,3,3,3,3,2,1,1,2,2,1,1,2,2,1,1,2,2,1,1,2,2,1,1,2,3,3,3,3,3,3,3,1,1,1,1,1,1,1,1,1,1,1,1,1,1,1,1,1,1,1,1,1,3,3,3,1,3,3,3,3,1,1,2,1,1,1,2,1,1,1,2,1,1,1,2,1,1,1,2,1,3,3,3,3,3,3,3,1,2,1,1,2,2,1,1,2,2,1,1,2,2,1,1,2,2,1,1,2,3,3,3,1,3,1,1,3,2,2,2,2,2,2,2,2,2,2,2,2,2,2,2,2,2,2,2,2,3,1,1,3,3,3,3,1,2,1,1,2,2,1,1,2,2,1,1,2,2,1,1,2,2,1,1,2,3,3,3,1,3,3,3,1,2,1,1,2,2,1,1,2,2,1,1,2,2,1,1,2,2,1,1,2,3,3,3,1,3,3,3,1,2,1,1,2,2,1,1,2,2,1,1,2,2,1,1,2,2,1,1,2,3,3,3,1,1,1,1,1,2,1,1,2,2,1,1,2,2,1,1,2,2,1,1,2,2,1,1,2,1,1,1,1,3,1,1,1,2,2,1,2,2,2,1,2,2,2,1,2,2,2,1,2,2,2,1,2,3,1,1,1,3,3,3,1,1,1,1,1,1,1,1,1,1,1,1,1,1,1,1,1,1,1,1,1,3,3,3,1,3,3,3,1,2,1,1,2,2,1,1,2,2,1,1,2,2,1,1,2,2,1,1,2,3,3,3,1,3,3,3,3,1,1,1,1,1,1,1,1,1,1,1,1,1,1,1,1,1,1,1,1,3,3,3,3,1,1,1,1,1,1,1,1,1,1,1,1,1,1,1,1,1,1,1,1,1,1,1,1,1,1,1,1,1,3,3,1,2,1,2,2,2,1,2,2,2,1,2,2,2,1,2,2,2,1,2,2,1,3,3,1,3,3,3,1,2,1,1,2,2,1,1,2,2,1,1,2,2,1,1,2,2,1,1,2,3,3,3,1,3,1,1,1,2,1,1,2,2,1,1,2,2,1,1,2,2,1,1,2,2,1,1,2,3,1,1,1,3,3,3,1,2,2,2,2,2,2,2,2,2,2,2,2,2,2,2,2,2,2,2,2,3,3,3,1,1,3,3,1,2,1,2,2,2,1,2,2,2,1,2,2,2,1,2,2,2,1,2,2,1,3,3,1,1,3,3,1,2,2,1,2,2,2,1,2,2,2,1,2,2,2,1,2,2,2,1,2,1,3,3,1,3,3,3,1,2,1,1,2,2,1,1,2,2,1,1,2,2,1,1,2,2,1,1,2,3,3,3,1,3,3,3,1,2,1,1,2,2,1,1,2,2,1,1,2,2,1,1,2,2,1,1,2,3,3,3,1,3,3,3,1,2,1,1,2,2,1,1,2,2,1,1,2,2,1,1,2,2,1,1,2,3,3,3,1]
letting ub =  206
